p edge 30 111 20
v 2 5 7
v 2 13 29
v 2 11 12
v 1 16
v 1 25
v 4 6 17 21 28
v 2 15 18
v 1 30
v 1 27
v 1 10
v 3 2 4 8
v 1 23
v 1 20
v 1 3
v 1 1
v 1 24
v 1 26
v 2 19 22
v 1 14
v 1 9
e 1 2
e 1 10
e 1 14
e 1 15
e 1 20
e 1 21
e 1 27
e 2 9
e 2 13
e 2 17
e 2 18
e 2 20
e 2 21
e 2 22
e 2 26
e 3 8
e 3 16
e 3 28
e 4 8
e 4 10
e 4 14
e 4 20
e 4 23
e 4 26
e 4 28
e 5 13
e 5 16
e 5 17
e 5 23
e 5 27
e 6 8
e 6 15
e 6 18
e 6 24
e 7 16
e 7 17
e 7 19
e 7 25
e 7 26
e 7 27
e 7 29
e 7 30
e 8 16
e 8 18
e 8 23
e 8 24
e 8 27
e 9 11
e 9 14
e 9 16
e 9 19
e 9 22
e 9 23
e 9 27
e 9 28
e 10 12
e 10 13
e 10 20
e 10 23
e 11 12
e 11 19
e 11 25
e 11 26
e 13 18
e 13 20
e 13 24
e 13 25
e 14 17
e 14 20
e 14 23
e 14 24
e 15 22
e 15 23
e 15 24
e 15 27
e 15 29
e 15 30
e 16 17
e 16 19
e 16 22
e 16 24
e 17 18
e 17 20
e 17 27
e 18 23
e 18 24
e 18 25
e 18 26
e 18 27
e 18 29
e 19 22
e 20 21
e 20 23
e 20 25
e 20 26
e 20 27
e 20 28
e 20 30
e 21 28
e 21 29
e 21 30
e 22 24
e 22 27
e 22 28
e 22 29
e 23 29
e 24 25
e 24 28
e 24 29
e 24 30
e 29 30
